certificates/rado_a15_c183_N35.cnf
c Rad2 upper bound instance: x1 + 15*x2 - x3 = 183, interval [1,35]
p cnf 35 164
1 13 0
-1 -13 0
1 14 28 0
-1 -14 -28 0
2 13 14 0
-2 -13 -14 0
2 14 29 0
-2 -14 -29 0
3 13 15 0
-3 -13 -15 0
3 14 30 0
-3 -14 -30 0
1 4 12 0
-1 -4 -12 0
4 13 16 0
-4 -13 -16 0
4 14 31 0
-4 -14 -31 0
2 5 12 0
-2 -5 -12 0
5 13 17 0
-5 -13 -17 0
5 14 32 0
-5 -14 -32 0
3 6 12 0
-3 -6 -12 0
6 13 18 0
-6 -13 -18 0
6 14 33 0
-6 -14 -33 0
4 7 12 0
-4 -7 -12 0
7 13 19 0
-7 -13 -19 0
7 14 34 0
-7 -14 -34 0
5 8 12 0
-5 -8 -12 0
8 13 20 0
-8 -13 -20 0
8 14 35 0
-8 -14 -35 0
6 9 12 0
-6 -9 -12 0
9 13 21 0
-9 -13 -21 0
7 10 12 0
-7 -10 -12 0
10 13 22 0
-10 -13 -22 0
8 11 12 0
-8 -11 -12 0
11 13 23 0
-11 -13 -23 0
9 12 0
-9 -12 0
12 13 24 0
-12 -13 -24 0
10 12 13 0
-10 -12 -13 0
13 25 0
-13 -25 0
11 12 14 0
-11 -12 -14 0
13 14 26 0
-13 -14 -26 0
12 15 0
-12 -15 0
13 15 27 0
-13 -15 -27 0
12 13 16 0
-12 -13 -16 0
13 16 28 0
-13 -16 -28 0
12 14 17 0
-12 -14 -17 0
13 17 29 0
-13 -17 -29 0
12 15 18 0
-12 -15 -18 0
13 18 30 0
-13 -18 -30 0
1 11 19 0
-1 -11 -19 0
12 16 19 0
-12 -16 -19 0
13 19 31 0
-13 -19 -31 0
2 11 20 0
-2 -11 -20 0
12 17 20 0
-12 -17 -20 0
13 20 32 0
-13 -20 -32 0
3 11 21 0
-3 -11 -21 0
12 18 21 0
-12 -18 -21 0
13 21 33 0
-13 -21 -33 0
4 11 22 0
-4 -11 -22 0
12 19 22 0
-12 -19 -22 0
13 22 34 0
-13 -22 -34 0
5 11 23 0
-5 -11 -23 0
12 20 23 0
-12 -20 -23 0
13 23 35 0
-13 -23 -35 0
6 11 24 0
-6 -11 -24 0
12 21 24 0
-12 -21 -24 0
7 11 25 0
-7 -11 -25 0
12 22 25 0
-12 -22 -25 0
8 11 26 0
-8 -11 -26 0
12 23 26 0
-12 -23 -26 0
9 11 27 0
-9 -11 -27 0
12 24 27 0
-12 -24 -27 0
10 11 28 0
-10 -11 -28 0
12 25 28 0
-12 -25 -28 0
11 29 0
-11 -29 0
12 26 29 0
-12 -26 -29 0
11 12 30 0
-11 -12 -30 0
12 27 30 0
-12 -27 -30 0
11 13 31 0
-11 -13 -31 0
12 28 31 0
-12 -28 -31 0
11 14 32 0
-11 -14 -32 0
12 29 32 0
-12 -29 -32 0
11 15 33 0
-11 -15 -33 0
12 30 33 0
-12 -30 -33 0
1 10 34 0
-1 -10 -34 0
11 16 34 0
-11 -16 -34 0
12 31 34 0
-12 -31 -34 0
2 10 35 0
-2 -10 -35 0
11 17 35 0
-11 -17 -35 0
12 32 35 0
-12 -32 -35 0
