certificates/rado_a15_c183_N35.drat
12 -33 -35 0
-14 -12 -34 0
-12 -34 -35 0
14 12 -35 0
12 -35 0
d 14 12 -35 0
-14 -35 0
-12 -35 0
d -32 -12 -35 0
-35 0
-12 14 0
14 0
12 0
-9 0
-15 0
-17 0
-11 0
-34 0
0
